! SHBT exotic 12-layer RO4350B interposer, Z0 = 50.12 ohm
# GHZ S RI R 50
1.0000 2.39e-3 0 1 0 1 0 2.39e-3 0
2.0000 2.39e-3 0 1 0 1 0 2.39e-3 0
3.0000 2.39e-3 0 1 0 1 0 2.39e-3 0
4.0000 2.39e-3 0 1 0 1 0 2.39e-3 0
5.0000 2.39e-3 0 1 0 1 0 2.39e-3 0
6.0000 2.39e-3 0 1 0 1 0 2.39e-3 0
7.0000 2.39e-3 0 1 0 1 0 2.39e-3 0
8.0000 2.39e-3 0 1 0 1 0 2.39e-3 0
9.0000 2.39e-3 0 1 0 1 0 2.39e-3 0
10.0000 2.39e-3 0 1 0 1 0 2.39e-3 0
11.0000 2.39e-3 0 1 0 1 0 2.39e-3 0
12.0000 2.39e-3 0 1 0 1 0 2.39e-3 0
13.0000 2.39e-3 0 1 0 1 0 2.39e-3 0
14.0000 2.39e-3 0 1 0 1 0 2.39e-3 0
15.0000 2.39e-3 0 1 0 1 0 2.39e-3 0
16.0000 2.39e-3 0 1 0 1 0 2.39e-3 0
17.0000 2.39e-3 0 1 0 1 0 2.39e-3 0
18.0000 2.39e-3 0 1 0 1 0 2.39e-3 0
19.0000 2.39e-3 0 1 0 1 0 2.39e-3 0
20.0000 2.39e-3 0 1 0 1 0 2.39e-3 0
21.0000 2.39e-3 0 1 0 1 0 2.39e-3 0
22.0000 2.39e-3 0 1 0 1 0 2.39e-3 0
23.0000 2.39e-3 0 1 0 1 0 2.39e-3 0
24.0000 2.39e-3 0 1 0 1 0 2.39e-3 0
25.0000 2.39e-3 0 1 0 1 0 2.39e-3 0
26.0000 2.39e-3 0 1 0 1 0 2.39e-3 0
27.0000 2.39e-3 0 1 0 1 0 2.39e-3 0
28.0000 2.39e-3 0 1 0 1 0 2.39e-3 0
29.0000 2.39e-3 0 1 0 1 0 2.39e-3 0
30.0000 2.39e-3 0 1 0 1 0 2.39e-3 0
31.0000 2.39e-3 0 1 0 1 0 2.39e-3 0
32.0000 2.39e-3 0 1 0 1 0 2.39e-3 0
33.0000 2.39e-3 0 1 0 1 0 2.39e-3 0
34.0000 2.39e-3 0 1 0 1 0 2.39e-3 0
35.0000 2.39e-3 0 1 0 1 0 2.39e-3 0
36.0000 2.39e-3 0 1 0 1 0 2.39e-3 0
37.0000 2.39e-3 0 1 0 1 0 2.39e-3 0
38.0000 2.39e-3 0 1 0 1 0 2.39e-3 0
39.0000 2.39e-3 0 1 0 1 0 2.39e-3 0
40.0000 2.39e-3 0 1 0 1 0 2.39e-3 0
